334 5
10 10 10 10 10 

0 0 0 0 0 0 4 2 14 26 38 
0 0 0 0 0 0 5 3 6 8 11 12 
2 0 0 0 2 0 1 4 
6 0 0 0 2 0 1 5 
4 0 0 0 3 0 1 7 
8 0 0 0 6 0 1 7 
1 0 0 0 3 0 1 9 
10 0 0 0 10 0 1 10 
5 0 0 0 7 0 1 13 
9 0 0 0 7 0 1 13 
1 0 0 0 5 0 1 13 
2 0 0 0 5 0 1 13 
0 0 0 0 0 0 1 50 
0 0 0 0 0 0 6 15 17 21 22 23 24 
9 0 1 0 0 0 1 16 
5 0 7 0 0 0 1 18 
5 0 5 0 0 0 1 18 
3 0 7 0 0 0 1 19 
10 0 5 0 0 0 1 20 
2 0 6 0 0 0 1 25 
10 0 7 0 0 0 1 25 
1 0 5 0 0 0 1 25 
9 0 4 0 0 0 1 25 
2 0 3 0 0 0 1 25 
0 0 0 0 0 0 1 50 
0 0 0 0 0 0 2 27 28 
1 1 0 0 0 0 2 30 29 
9 6 0 0 0 0 2 30 29 
7 5 0 0 0 0 2 32 31 
2 4 0 0 0 0 2 32 31 
3 7 0 0 0 0 2 36 33 
4 4 0 0 0 0 2 36 33 
4 6 0 0 0 0 2 35 34 
2 3 0 0 0 0 1 37 
2 5 0 0 0 0 1 37 
8 9 0 0 0 0 1 37 
0 0 0 0 0 0 1 50 
0 0 0 0 0 0 1 39 
10 0 0 1 0 0 2 41 40 
10 0 0 6 0 0 2 43 42 
10 0 0 2 0 0 2 43 42 
7 0 0 3 0 0 4 47 46 45 44 
4 0 0 7 0 0 4 47 46 45 44 
6 0 0 4 0 0 1 48 
1 0 0 8 0 0 1 48 
5 0 0 6 0 0 1 48 
10 0 0 4 0 0 1 48 
2 0 0 9 0 0 1 49 
0 0 0 0 0 0 1 50 
0 0 0 0 0 0 4 51 63 75 87 
0 0 0 0 0 0 2 52 53 
9 0 1 0 0 0 3 56 55 54 
8 0 2 0 0 0 2 56 54 
3 0 5 0 0 0 2 58 57 
10 0 6 0 0 0 2 58 57 
5 0 4 0 0 0 2 59 58 
6 0 9 0 0 0 2 61 59 
5 0 4 0 0 0 2 61 60 
4 0 5 0 0 0 1 60 
2 0 7 0 0 0 1 62 
4 0 7 0 0 0 1 62 
0 0 0 0 0 0 1 99 
0 0 0 0 0 0 2 64 67 
6 0 0 0 1 0 3 73 66 65 
6 0 0 0 4 0 2 70 68 
8 0 0 0 5 0 2 72 69 
5 0 0 0 7 0 1 68 
3 0 0 0 6 0 1 69 
4 0 0 0 7 0 1 71 
6 0 0 0 7 0 1 72 
3 0 0 0 2 0 1 74 
2 0 0 0 6 0 1 74 
6 0 0 0 5 0 1 74 
0 0 0 0 0 0 1 99 
0 0 0 0 0 0 4 76 79 81 85 
8 1 0 0 0 0 2 84 77 
3 3 0 0 0 0 1 78 
8 5 0 0 0 0 2 83 80 
5 4 0 0 0 0 2 84 82 
3 10 0 0 0 0 1 82 
7 8 0 0 0 0 1 82 
4 5 0 0 0 0 1 86 
7 3 0 0 0 0 1 86 
2 5 0 0 0 0 1 86 
10 6 0 0 0 0 1 86 
0 0 0 0 0 0 1 99 
0 0 0 0 0 0 1 88 
5 0 1 0 0 0 3 93 90 89 
10 0 7 0 0 0 2 92 91 
10 0 6 0 0 0 1 91 
1 0 3 0 0 0 3 97 95 94 
4 0 3 0 0 0 2 97 95 
6 0 7 0 0 0 2 97 94 
10 0 5 0 0 0 1 96 
9 0 6 0 0 0 1 96 
3 0 9 0 0 0 1 98 
7 0 3 0 0 0 1 98 
0 0 0 0 0 0 1 99 
0 0 0 0 0 0 4 100 132 164 176 
0 0 0 0 0 0 3 101 102 105 
3 1 0 1 1 0 2 109 103 
2 3 0 2 7 0 2 109 103 
3 7 0 5 6 0 2 108 104 
2 5 0 5 5 0 2 110 106 
6 6 0 6 9 0 2 110 109 
7 8 0 8 5 0 1 107 
10 4 0 6 4 0 3 116 113 111 
4 2 0 6 3 0 2 111 110 
5 3 0 5 5 0 2 116 111 
6 5 0 4 5 0 2 116 112 
7 4 0 5 5 0 1 112 
8 7 0 8 6 0 2 120 114 
5 7 0 10 7 0 2 120 114 
6 4 0 7 7 0 2 118 115 
7 5 0 2 3 0 2 123 117 
3 5 0 3 6 0 2 120 117 
10 4 0 2 4 0 1 119 
8 5 0 6 6 0 1 119 
3 7 0 7 3 0 1 121 
6 6 0 3 2 0 1 121 
3 6 0 3 2 0 2 125 122 
2 5 0 3 4 0 5 130 129 128 126 124 
5 6 0 7 4 0 3 128 126 124 
6 4 0 4 8 0 1 127 
3 5 0 5 10 0 1 126 
1 6 0 6 4 0 1 131 
10 6 0 5 6 0 1 131 
1 3 0 7 9 0 1 131 
7 6 0 2 2 0 1 131 
1 5 0 7 2 0 1 131 
0 0 0 0 0 0 1 334 
0 0 0 0 0 0 3 133 134 136 
8 0 3 0 1 1 2 141 135 
6 0 4 0 4 5 2 141 135 
7 0 7 0 2 6 2 140 137 
8 0 6 0 7 4 3 144 141 140 
8 0 9 0 3 6 2 142 138 
5 0 8 0 5 5 1 139 
1 0 5 0 8 5 3 149 144 143 
5 0 2 0 7 7 1 142 
6 0 3 0 4 6 1 142 
9 0 3 0 9 3 2 149 143 
7 0 4 0 2 8 1 145 
3 0 6 0 5 5 1 145 
7 0 5 0 4 5 2 150 146 
2 0 6 0 3 7 2 148 147 
5 0 1 0 6 6 2 155 151 
6 0 7 0 4 5 2 155 151 
7 0 8 0 7 5 1 150 
9 0 10 0 8 4 1 151 
1 0 6 0 8 4 1 152 
9 0 4 0 5 5 1 153 
2 0 7 0 5 3 2 157 154 
5 0 5 0 8 9 5 162 161 160 158 156 
7 0 4 0 2 4 5 162 161 160 158 156 
9 0 4 0 4 4 1 159 
5 0 4 0 5 5 1 158 
8 0 2 0 6 5 1 163 
7 0 4 0 3 5 1 163 
7 0 4 0 5 6 1 163 
7 0 5 0 5 4 1 163 
8 0 4 0 5 3 1 163 
0 0 0 0 0 0 1 334 
0 0 0 0 0 0 4 165 166 167 169 
8 0 1 0 0 0 2 171 168 
5 0 5 0 0 0 2 171 168 
5 0 3 0 0 0 1 168 
7 0 6 0 0 0 2 172 170 
8 0 5 0 0 0 2 173 171 
3 0 7 0 0 0 1 173 
8 0 7 0 0 0 1 172 
8 0 5 0 0 0 1 174 
8 0 4 0 0 0 1 174 
5 0 7 0 0 0 1 175 
0 0 0 0 0 0 4 208 220 242 264 
0 0 0 0 0 0 3 177 178 195 
7 0 1 2 1 0 2 200 179 
1 0 8 6 5 0 2 200 179 
6 0 7 5 7 0 2 183 180 
9 0 3 7 3 0 2 187 181 
7 0 7 6 5 0 2 206 182 
2 0 5 7 6 0 2 193 184 
10 0 4 2 3 0 2 187 185 
7 0 1 6 3 0 1 185 
6 0 6 6 8 0 3 199 190 186 
1 0 4 5 7 0 2 196 188 
7 0 6 5 9 0 2 199 188 
2 0 6 4 4 0 1 189 
1 0 2 5 5 0 2 205 191 
9 0 6 9 4 0 2 205 192 
5 0 9 5 3 0 1 192 
6 0 4 4 3 0 3 204 198 194 
10 0 5 5 6 0 2 204 194 
7 0 4 4 6 0 3 203 202 197 
7 0 9 6 8 0 3 205 203 198 
9 0 3 4 4 0 1 197 
9 0 10 5 3 0 1 201 
8 0 2 5 7 0 1 202 
2 0 4 5 7 0 1 205 
3 0 2 3 8 0 1 201 
8 0 6 5 7 0 1 207 
6 0 4 1 4 0 1 207 
7 0 5 6 4 0 1 207 
4 0 6 3 3 0 1 207 
1 0 5 10 4 0 1 207 
1 0 6 4 3 0 1 207 
0 0 0 0 0 0 1 334 
0 0 0 0 0 0 2 209 210 
9 0 1 0 0 0 2 218 211 
10 0 4 0 0 0 5 218 217 216 215 213 
5 0 4 0 0 0 2 217 212 
1 0 3 0 0 0 3 216 215 213 
1 0 4 0 0 0 1 214 
5 0 5 0 0 0 1 219 
7 0 4 0 0 0 1 219 
7 0 9 0 0 0 1 219 
8 0 6 0 0 0 1 219 
3 0 10 0 0 0 1 219 
0 0 0 0 0 0 4 286 298 310 322 
0 0 0 0 0 0 7 221 235 236 237 238 239 240 
7 0 0 0 1 2 3 234 233 222 
7 0 0 0 6 4 2 232 223 
3 0 0 0 3 2 2 231 224 
7 0 0 0 4 7 1 225 
6 0 0 0 7 4 1 226 
5 0 0 0 7 3 1 227 
6 0 0 0 3 7 1 228 
3 0 0 0 4 5 1 229 
1 0 0 0 9 4 1 230 
2 0 0 0 8 6 1 241 
10 0 0 0 5 7 1 241 
4 0 0 0 6 8 1 241 
8 0 0 0 2 10 1 241 
3 0 0 0 3 4 1 241 
8 0 0 0 5 7 1 241 
6 0 0 0 10 4 1 241 
5 0 0 0 5 5 1 241 
3 0 0 0 2 4 1 241 
4 0 0 0 5 3 1 241 
9 0 0 0 5 4 1 241 
0 0 0 0 0 0 1 334 
0 0 0 0 0 0 3 243 245 247 
3 0 0 0 1 1 2 251 244 
10 0 0 0 4 3 2 256 246 
3 0 0 0 6 7 5 260 257 252 251 250 
7 0 0 0 6 4 2 252 248 
8 0 0 0 4 7 3 260 251 250 
7 0 0 0 5 2 1 249 
3 0 0 0 7 10 2 260 250 
9 0 0 0 3 4 4 262 259 255 253 
8 0 0 0 5 3 2 262 255 
1 0 0 0 2 4 1 253 
8 0 0 0 9 7 1 254 
4 0 0 0 4 8 1 258 
8 0 0 0 6 6 1 258 
8 0 0 0 5 9 1 259 
6 0 0 0 5 6 1 259 
10 0 0 0 6 3 1 261 
8 0 0 0 5 8 1 261 
5 0 0 0 3 4 1 262 
6 0 0 0 7 2 1 263 
6 0 0 0 7 2 1 263 
0 0 0 0 0 0 1 334 
0 0 0 0 0 0 1 265 
6 1 0 0 0 1 2 270 266 
7 2 0 0 0 3 1 267 
4 6 0 0 0 7 3 284 282 268 
7 10 0 0 0 2 3 283 281 269 
2 5 0 0 0 8 2 278 271 
10 2 0 0 0 8 6 282 281 278 277 276 273 
8 6 0 0 0 6 3 280 279 272 
4 6 0 0 0 4 3 277 276 273 
6 4 0 0 0 7 1 274 
3 5 0 0 0 4 1 275 
1 9 0 0 0 3 1 285 
4 3 0 0 0 3 1 285 
10 3 0 0 0 5 1 285 
6 3 0 0 0 5 1 285 
2 5 0 0 0 5 1 285 
8 5 0 0 0 8 1 285 
6 6 0 0 0 4 1 285 
4 7 0 0 0 6 1 285 
2 7 0 0 0 8 1 285 
10 5 0 0 0 3 1 285 
0 0 0 0 0 0 1 334 
0 0 0 0 0 0 3 287 292 296 
3 0 0 0 0 1 2 291 288 
2 0 0 0 0 7 2 295 289 
1 0 0 0 0 9 1 290 
8 0 0 0 0 6 1 293 
5 0 0 0 0 3 1 294 
3 0 0 0 0 5 1 293 
10 0 0 0 0 8 1 297 
9 0 0 0 0 4 1 297 
8 0 0 0 0 3 1 297 
5 0 0 0 0 4 1 297 
0 0 0 0 0 0 1 334 
0 0 0 0 0 0 2 299 301 
6 0 1 0 0 0 3 308 302 300 
1 0 4 0 0 0 2 304 303 
3 0 2 0 0 0 1 302 
7 0 5 0 0 0 2 307 304 
1 0 8 0 0 0 2 307 306 
3 0 6 0 0 0 1 305 
9 0 7 0 0 0 1 306 
3 0 6 0 0 0 1 309 
1 0 4 0 0 0 1 309 
6 0 7 0 0 0 1 309 
0 0 0 0 0 0 1 334 
0 0 0 0 0 0 1 311 
3 1 0 0 0 0 2 313 312 
8 8 0 0 0 0 2 315 314 
10 4 0 0 0 0 2 317 315 
8 3 0 0 0 0 2 317 316 
2 6 0 0 0 0 1 316 
6 5 0 0 0 0 3 320 319 318 
7 6 0 0 0 0 3 320 319 318 
3 3 0 0 0 0 1 321 
6 7 0 0 0 0 1 321 
2 7 0 0 0 0 1 321 
0 0 0 0 0 0 1 334 
0 0 0 0 0 0 3 323 326 327 
10 0 1 0 0 0 1 324 
5 0 4 0 0 0 1 325 
3 0 3 0 0 0 3 330 329 328 
1 0 6 0 0 0 2 330 329 
2 0 5 0 0 0 2 330 328 
7 0 8 0 0 0 2 332 331 
3 0 7 0 0 0 2 332 331 
2 0 4 0 0 0 1 331 
2 0 9 0 0 0 1 333 
4 0 3 0 0 0 1 333 
0 0 0 0 0 0 1 334 
0 0 0 0 0 0 0 
